; benchmark generated from python API
(set-info :status unknown)
(declare-datatypes ((RealState 0)) (((RMk1 (rval1 Real)) (RMk2 (rval2 Real)))))
 (assert
 (forall ((|v11:0| Real) )(forall ((|v10:1| Real) )(forall ((|v9:2| Real) )(forall ((|v8:3| Real) )(exists ((|v7:4_st| RealState) (val!3636 Real) )(exists ((|v6:5_st| RealState) (val!3637 Real) )(exists ((|v5:6_st| RealState) (val!3638 Real) )(exists ((|v4:7_st| RealState) (val!3639 Real) )(forall ((|v3:8| Real) )(forall ((|v2:9| Real) )(forall ((|v1:10| Real) )(forall ((|v0:11| Real) )(let ((?x1488 (* 16.0 |v11:0|)))
 (let ((?x3121 (- 5.0)))
 (let ((?x2546 (* ?x3121 |v2:9|)))
 (let ((?x1713 (+ (+ (* (- 14.0) (rval2 |v7:4_st|)) (* (- 15.0) (rval2 |v4:7_st|))) ?x2546)))
 (let ((?x2898 (- 19.0)))
 (let ((?x2479 (* ?x2898 |v3:8|)))
 (let ((?x1180 (+ (+ (+ (* (- 4.0) |v10:1|) (* 19.0 (rval2 |v6:5_st|))) (* 0.0 |v0:11|)) ?x2479)))
 (let ((?x1554 (- 2.0)))
 (let ((?x2156 (* 13.0 |v10:1|)))
 (let ((?x2356 (* 17.0 |v2:9|)))
 (let ((?x2628 (+ (+ (+ (* (- 9.0) |v8:3|) (* (- 18.0) (rval2 |v6:5_st|))) ?x2356) ?x2156)))
 (let ((?x611 (* 4.0 |v0:11|)))
 (let ((?x1637 (- 20.0)))
 (let ((?x561 (* ?x1637 |v3:8|)))
 (let ((?x303 (+ (+ (+ (* (- 15.0) |v2:9|) (* (- 7.0) (rval2 |v7:4_st|))) ?x561) ?x611)))
 (let ((?x1530 (* 18.0 |v10:1|)))
 (let ((?x1991 (+ (+ (+ (* 3.0 |v1:10|) (* (- 16.0) (rval2 |v6:5_st|))) (* 16.0 |v2:9|)) ?x1530)))
 (let (($x635 (or (or (<= ?x1991 14.0) (<= ?x303 ?x1554)) (and (<= ?x2628 ?x1554) (<= ?x1180 ?x2898)))))
 (let ((?x898 (- 15.0)))
 (let ((?x2853 (* 11.0 |v10:1|)))
 (let ((?x560 (+ (+ (* (- 18.0) |v2:9|) (* ?x2898 |v1:10|)) (* 4.0 |v2:9|))))
 (let ((?x1178 (- 18.0)))
 (let ((?x2306 (+ (+ (+ (* ?x1554 |v1:10|) ?x1488) (* (- 16.0) |v8:3|)) (* 13.0 (rval2 |v7:4_st|)))))
 (let ((?x2911 (* 3.0 |v1:10|)))
 (let ((?x651 (* ?x1178 |v3:8|)))
 (let ((?x2932 (+ (+ (+ (* ?x898 (rval2 |v7:4_st|)) (* (- 10.0) (rval2 |v6:5_st|))) ?x651) ?x2911)))
 (let ((?x1482 (* 12.0 |v1:10|)))
 (let ((?x418 (+ (+ (+ (* 2.0 (rval2 |v7:4_st|)) (* (- 13.0) |v3:8|)) (* 17.0 |v9:2|)) ?x1482)))
 (let (($x3054 (or (or (<= ?x418 10.0) (<= ?x2932 6.0)) (and (<= ?x2306 ?x1178) (<= (+ ?x560 ?x2853) ?x898)))))
 (let ((?x2986 (* 20.0 |v2:9|)))
 (let ((?x1390 (+ (+ (* 18.0 |v3:8|) (* 18.0 |v1:10|)) ?x2986)))
 (let ((?x1732 (- 14.0)))
 (let ((?x255 (rval2 |v4:7_st|)))
 (let ((?x1503 (* 12.0 ?x255)))
 (let ((?x1944 (+ (+ (* (- 4.0) (rval2 |v7:4_st|)) (* (- 6.0) |v3:8|)) (* ?x2898 |v10:1|))))
 (let (($x1985 (and (<= (+ ?x1944 ?x1503) ?x1732) (<= (+ ?x1390 (* (- 10.0) |v8:3|)) 8.0))))
 (let ((?x2265 (- 1.0)))
 (let ((?x2596 (* 14.0 |v2:9|)))
 (let ((?x633 (+ (+ (+ (* 0.0 |v11:0|) (* 0.0 |v11:0|)) (* (- 3.0) |v10:1|)) ?x2596)))
 (let ((?x2566 (* 8.0 ?x255)))
 (let ((?x221 (+ (+ (+ (* (- 17.0) (rval2 |v6:5_st|)) (* (- 8.0) |v0:11|)) ?x2566) (* ?x3121 |v11:0|))))
 (let (($x1709 (<= (+ (+ (+ (* 3.0 |v0:11|) (* 11.0 |v8:3|)) (* 16.0 |v10:1|)) |v1:10|) ?x1554)))
 (let (($x2391 (and (or $x1709 (or (or (<= ?x221 18.0) (<= ?x633 ?x2265)) $x1985)) (or $x3054 $x635))))
 (let ((?x3127 (- 7.0)))
 (let ((?x2332 (+ (+ (* 16.0 (rval2 |v6:5_st|)) (* (- 11.0) |v3:8|)) (* (- 10.0) |v10:1|))))
 (let ((?x1662 (- 13.0)))
 (let ((?x2472 (+ (+ (+ (* (- 17.0) |v11:0|) (* 4.0 |v1:10|)) (* (- 11.0) |v8:3|)) (* 3.0 |v11:0|))))
 (let ((?x742 (* 10.0 |v8:3|)))
 (let ((?x359 (+ (+ (+ (* (- 6.0) |v0:11|) (* 8.0 |v0:11|)) (* 15.0 |v9:2|)) ?x742)))
 (let ((?x2755 (rval2 |v7:4_st|)))
 (let ((?x586 (* ?x1732 ?x2755)))
 (let (($x3022 (<= (+ (+ (+ (* 20.0 |v8:3|) (* ?x2898 |v9:2|)) (* ?x1637 |v11:0|)) ?x586) 18.0)))
 (let (($x1376 (and (or $x3022 (<= ?x359 ?x1732)) (and (<= ?x2472 ?x1662) (<= (+ ?x2332 (* ?x1554 (rval2 |v5:6_st|))) ?x3127)))))
 (let ((?x1264 (+ (+ (+ (* ?x1178 |v11:0|) (* ?x1662 ?x255)) (* (- 6.0) |v11:0|)) (* (- 10.0) |v11:0|))))
 (let ((?x2272 (- 8.0)))
 (let (($x2590 (<= (+ (+ (+ ?x1530 (* 15.0 |v0:11|)) (* 4.0 |v3:8|)) (* 19.0 |v10:1|)) ?x2272)))
 (let ((?x915 (* ?x1554 |v2:9|)))
 (let (($x2388 (<= (+ (+ (+ (* ?x1554 |v0:11|) (* 8.0 |v8:3|)) (* ?x1178 |v1:10|)) ?x915) 3.0)))
 (let ((?x1261 (- 10.0)))
 (let ((?x1693 (+ (+ (+ (* ?x2898 (rval2 |v5:6_st|)) (* 2.0 ?x255)) (* ?x1178 |v11:0|)) (* (- 16.0) ?x255))))
 (let ((?x3164 (+ (+ (+ (* 15.0 ?x255) (* 3.0 |v3:8|)) (* 14.0 (rval2 |v5:6_st|))) (* ?x2272 |v10:1|))))
 (let ((?x2133 (* 15.0 |v0:11|)))
 (let ((?x2914 (+ (+ (+ (* 3.0 (rval2 |v5:6_st|)) (* ?x1637 |v8:3|)) (* ?x2898 |v2:9|)) ?x2133)))
 (let ((?x2451 (rval2 |v6:5_st|)))
 (let ((?x2990 (* 6.0 ?x2451)))
 (let ((?x2949 (+ (+ (+ (* (- 16.0) |v2:9|) (* (- 9.0) |v8:3|)) ?x2990) (* 0.0 ?x2755))))
 (let (($x1049 (and (<= (+ (+ (+ (* ?x3127 |v8:3|) (* (- 17.0) |v9:2|)) ?x2990) ?x2853) ?x3121) (<= ?x2949 14.0))))
 (let ((?x2252 (+ (+ (+ (* (- 17.0) |v8:3|) (* ?x1178 |v8:3|)) (* ?x1261 |v9:2|)) (* 17.0 ?x2451))))
 (let ((?x1573 (+ (+ (+ (* 4.0 |v9:2|) (* 10.0 |v2:9|)) (* 8.0 |v1:10|)) (* (- 16.0) |v9:2|))))
 (let ((?x3216 (rval2 |v5:6_st|)))
 (let ((?x939 (* 18.0 ?x3216)))
 (let (($x1138 (and (<= (+ (+ (+ ?x1530 (* ?x1662 ?x2451)) |v1:10|) (* 2.0 |v8:3|)) ?x2898) (<= (+ (+ (+ (* 8.0 |v8:3|) (* 2.0 |v9:2|)) ?x2566) ?x939) ?x3127))))
 (let (($x1147 (and (or $x1138 (and (<= ?x1573 18.0) (<= ?x2252 2.0))) (or $x1049 (or (<= ?x2914 5.0) (<= ?x3164 8.0))))))
 (let (($x2130 (and $x1147 (or (or (or (<= ?x1693 ?x1261) $x2388) (and $x2590 (<= ?x1264 1.0))) $x1376))))
 (let (($x3027 (not (= |v4:7_st| (RMk1 val!3639)))))
 (let (($x820 (not (= |v5:6_st| (RMk1 val!3638)))))
 (let (($x1286 (not (= |v6:5_st| (RMk1 val!3637)))))
 (let (($x2483 (not (= |v7:4_st| (RMk1 val!3636)))))
 (and $x2483 $x1286 $x820 $x3027 (and (or $x2130 $x2391) (<= (+ ?x1713 ?x1488) 12.0))))))))))))))))))))))))))))))))))))))))))))))))))))))))))))))))))))))))))))))))))
 )
 )
 )
 )
 )
 )
 )
 )
 )
 )
 )
 )
(check-sat)
